c description: Random 3-CNF over 7 variables and 14 clauses
p cnf 7 14
-5 6 7 0
-3 -6 -7 0
5 -6 7 0
-1 3 -4 0
2 -4 5 0
-1 -3 -6 0
1 -6 7 0
-5 -6 -7 0
-1 3 -5 0
-5 6 -7 0
4 5 6 0
1 2 -3 0
1 3 6 0
4 5 -6 0